LPFile/soft1.lp
Minimize
+ 8.0 x51 + 8.0 x52 + 8.0 x53 + 12.0 x54 + 12.0 x55 + 12.0 x56 + 20.0 x57 + 20.0 x58 + 20.0 x59 
Subject To
r_1: + x1 + x2 + x3 - 1.0 x47  = 0
r_2: - 1.0 x1 + x4 + x5 - 1.0 x51 - 1.0 x54 - 1.0 x57  = 0
r_3: - 1.0 x2 + x6 + x7 - 1.0 x52 - 1.0 x55 - 1.0 x58  = 0
r_4: - 1.0 x3 + x8 + x9 + x10 - 1.0 x53 - 1.0 x56 - 1.0 x59  = 0
r_5: - 1.0 x4 - 1.0 x6 + x11  = 0
r_6: - 1.0 x5 - 1.0 x8 + x12 + x13  = 0
r_7: - 1.0 x7 - 1.0 x9 + x14 + x15  = 0
r_8: - 1.0 x10 + x16 + x17 + x18  = 0
r_9: - 1.0 x11 - 1.0 x12 - 1.0 x14 + x19  = 0
r_10: - 1.0 x13 - 1.0 x16 + x20 + x21  = 0
r_11: - 1.0 x15 - 1.0 x17 + x22 + x23  = 0
r_12: - 1.0 x18 + x24 + x25 + x26  = 0
r_13: - 1.0 x19 - 1.0 x20 - 1.0 x22 + x27  = 0
r_14: - 1.0 x21 - 1.0 x24 + x28 + x29  = 0
r_15: - 1.0 x23 - 1.0 x25 + x30 + x31  = 0
r_16: - 1.0 x26 + x32 + x33 + x34  = 0
r_17: - 1.0 x27 - 1.0 x28 - 1.0 x30 + x35  = 0
r_18: - 1.0 x29 - 1.0 x32 + x36 + x37  = 0
r_19: - 1.0 x31 - 1.0 x33 + x38  = 0
r_20: - 1.0 x34 + x39 + x40  = 0
r_21: - 1.0 x35 - 1.0 x36 + x41  = 0
r_22: - 1.0 x37 + x42 + x43  = 0
r_23: - 1.0 x38 - 1.0 x39 + x44  = 0
r_24: - 1.0 x40 + x45 + x46  = 0
r_25: - 1.0 x41 - 1.0 x42 + x47  = 0
r_26: - 1.0 x43 + x48  = 0
r_27: - 1.0 x44 - 1.0 x45 + x49  = 0
r_28: - 1.0 x46 + x50  = 0
r_29: - 1.0 x48 + x51 + x52 + x53  = 0
r_30: - 1.0 x49 + x54 + x55 + x56  = 0
r_31: - 1.0 x50 + x57 + x58 + x59  = 0
r_00: + x1 + x2 + x3 + x4 + x5 + x6 + x7 + x8 + x9 + x10 + x11 + x12 + x13 + x14 + x15 + x16 + x17 + x18 + x19 + x20 + x21 + x22 + x23 + x24 + x25 + x26 + x27 + x28 + x29 + x30 + x31 + x32 + x33 + x34 + x35 + x36 + x37 + x38 + x39 + x40 + x41 + x42 + x43 + x44 + x45 + x46 + x47 + x48 + x49 + x50 + x51 + x52 + x53 + x54 + x55 + x56 + x57 + x58 + x59 = 1
End