LPSol/soft1.sol
# Objective value = 0
x51 0
x52 0
x53 0
x54 0
x55 0
x56 0
x57 0
x58 0
x59 0
x1 0
x2 0
x3 1.2500000000000003e-01
x47 1.2500000000000003e-01
x4 0
x5 0
x6 0
x7 0
x8 0
x9 0
x10 1.2500000000000003e-01
x11 0
x12 0
x13 0
x14 0
x15 0
x16 0
x17 0
x18 1.2500000000000003e-01
x19 0
x20 0
x21 0
x22 0
x23 0
x24 0
x25 0
x26 1.2500000000000003e-01
x27 0
x28 0
x29 0
x30 0
x31 0
x32 1.2500000000000003e-01
x33 0
x34 0
x35 0
x36 1.2500000000000003e-01
x37 0
x38 0
x39 0
x40 0
x41 1.2500000000000003e-01
x42 0
x43 0
x44 0
x45 0
x46 0
x48 0
x49 0
x50 0
